# Solution for model GasLib-40
# Objective value = 1.3668967603782530e+01
loadshed[innode_1] 0
loadshed[innode_2] 0
loadshed[innode_3] 0
loadshed[innode_4] 0
loadshed[innode_5] 0
loadshed[innode_6] 0
loadshed[innode_7] 0
loadshed[innode_8] 0
loadshed[source_1] -2.0617938962017046e-01
loadshed[source_2] -0.0366615725448598
loadshed[source_3] 3.2930401223933814e-01
loadshed[sink_1] 0
loadshed[sink_2] 0
loadshed[sink_3] 0
loadshed[sink_4] 0
loadshed[sink_5] 0
loadshed[sink_6] 0
loadshed[sink_7] 0
loadshed[sink_8] 0
loadshed[sink_9] 0
loadshed[sink_10] 0
loadshed[sink_11] 0
loadshed[sink_12] 8.3580948405294442e-01
loadshed[sink_13] 0
loadshed[sink_14] 0
loadshed[sink_15] 0
loadshed[sink_16] 0
loadshed[sink_17] 0
loadshed[sink_18] 0
loadshed[sink_19] 0
loadshed[sink_20] 0
loadshed[sink_21] 0
loadshed[sink_22] 0
loadshed[sink_23] 0
loadshed[sink_24] 0
loadshed[sink_25] 0
loadshed[sink_26] 0
loadshed[sink_27] 0
loadshed[sink_28] 0
loadshed[sink_29] 0
flow[source_1,sink_3] 1.9068523475488320e+02
flow[innode_1,sink_16] 1.6354166666666970e+01
flow[innode_6,sink_13] 8.4486516571561623e+00
flow[sink_13,sink_14] -7.9055150095105056e+00
flow[sink_14,sink_10] -2.4259681676177173e+01
flow[sink_25,sink_26] 2.3164353239622093e+02
flow[sink_26,sink_9] 1.3081311449017389e+02
flow[sink_9,sink_18] 1.1445894782350722e+02
flow[sink_26,sink_4] 8.4476251239380588e+01
flow[sink_4,sink_20] 1.6354166666668277e+01
flow[sink_18,sink_6] 9.8104781156840545e+01
flow[sink_25,innode_8] -1.5797690142154681e+02
flow[sink_6,sink_7] 4.9042281156840090e+01
flow[sink_6,sink_22] 3.2708333333333641e+01
flow[sink_7,sink_24] 3.5393532396217473e+01
flow[sink_22,sink_1] 1.6354166666666970e+01
flow[sink_24,sink_21] 1.9039365729550806e+01
flow[sink_21,sink_12] 2.6851990628841373e+00
flow[sink_7,sink_5] -2.7054179060439623e+00
flow[sink_5,sink_17] -1.9059584572710492e+01
flow[sink_17,sink_4] -5.1767917906045795e+01
flow[sink_17,sink_8] 1.6354166666668334e+01
flow[sink_3,sink_23] 16.3541666666697
flow[sink_8,sink_20] 0
flow[sink_25,sink_20] 0
flow[sink_25,sink_15] -98.4694492984969
flow[sink_15,sink_29] -6.3872446499207307e+01
flow[sink_29,sink_28] 1.6354166666667879e+01
flow[sink_29,sink_2] 6.7305336132622941e+01
flow[sink_2,sink_15] 5.0951169465956269e+01
flow[sink_29,innode_7] -1.6388611596516481e+02
flow[innode_4,sink_19] 8.9676348342844364e+01
flow[sink_19,innode_3] 3.5780915165213820e+01
flow[innode_4,innode_5] 1.6354166666679703e+01
flow[sink_27,innode_5] -1.6354166666679703e+01
flow[sink_27,sink_19] 0
flow[sink_10,sink_11] 3.2708333333333641e+01
flow[sink_10,innode_2] -3.7541266510963659e+01
flow[sink_10,innode_3] -3.5780915165213820e+01
flow[innode_6,sink_25] -8.4486516571561623e+00
flow[sink_11,innode_1] 1.6354166666666970e+01
flow[sink_19,innode_2] 3.7541266510963659e+01
flow[source_3,innode_4] 1.0603051500952407e+02
flow[source_2,innode_7] 1.6388611596516481e+02
flow[sink_3,innode_8] 1.5797690142154681e+02
pressure[innode_1] 7.5244320338776745e+01
pressure[innode_2] 7.7380232631993479e+01
pressure[innode_3] 7.7300999847109210e+01
pressure[innode_4] 81.01325
pressure[innode_5] 8.1002000741808772e+01
pressure[innode_6] 7.4281001179406630e+01
pressure[innode_7] 81.01325
pressure[innode_8] 8.0375862104614413e+01
pressure[source_1] 81.01325
pressure[source_2] 81.01325
pressure[source_3] 81.01325
pressure[sink_1] 4.1274747465667254e+01
pressure[sink_2] 7.4925018298135228e+01
pressure[sink_3] 8.0375862104614413e+01
pressure[sink_4] 4.7225954012570078e+01
pressure[sink_5] 4.3827753605601067e+01
pressure[sink_6] 4.3375825076054625e+01
pressure[sink_7] 4.2702591454876654e+01
pressure[sink_8] 4.4630469694220125e+01
pressure[sink_9] 5.0136980707851706e+01
pressure[sink_10] 7.5396021646380291e+01
pressure[sink_11] 7.5244320338776745e+01
pressure[sink_12] 1.0132500000000002e+00
pressure[sink_13] 7.4234425174721579e+01
pressure[sink_14] 7.4248572767232076e+01
pressure[sink_15] 7.4758673959285758e+01
pressure[sink_16] 7.4222670503959066e+01
pressure[sink_17] 4.5247554889633747e+01
pressure[sink_18] 4.5995514829262106e+01
pressure[sink_19] 7.7380232631993479e+01
pressure[sink_20] 4.6026136303178504e+01
pressure[sink_21] 1.9687907880913349e+00
pressure[sink_22] 4.2338516608022260e+01
pressure[sink_23] 8.0211144092954626e+01
pressure[sink_24] 2.1796340738656346e+00
pressure[sink_25] 7.4281001179406630e+01
pressure[sink_26] 5.7966483229443348e+01
pressure[sink_27] 8.0866291377726043e+01
pressure[sink_28] 7.6334656147436334e+01
pressure[sink_29] 7.6629938421053510e+01
interdiction[source_1,sink_3] 0
interdiction[innode_1,sink_16] 0
interdiction[innode_6,sink_13] 0
interdiction[sink_13,sink_14] 0
interdiction[sink_14,sink_10] 0
interdiction[sink_25,sink_26] 0
interdiction[sink_26,sink_9] 0
interdiction[sink_9,sink_18] 0
interdiction[sink_26,sink_4] 0
interdiction[sink_4,sink_20] 0
interdiction[sink_18,sink_6] 0
interdiction[sink_25,innode_8] 0
interdiction[sink_6,sink_7] 0
interdiction[sink_6,sink_22] 0
interdiction[sink_7,sink_24] 0
interdiction[sink_22,sink_1] 0
interdiction[sink_24,sink_21] 0
interdiction[sink_21,sink_12] 0
interdiction[sink_7,sink_5] 0
interdiction[sink_5,sink_17] 0
interdiction[sink_17,sink_4] 0
interdiction[sink_17,sink_8] 0
interdiction[sink_3,sink_23] 0
interdiction[sink_8,sink_20] 1
interdiction[sink_25,sink_20] 1
interdiction[sink_25,sink_15] 0
interdiction[sink_15,sink_29] 0
interdiction[sink_29,sink_28] 0
interdiction[sink_29,sink_2] 0
interdiction[sink_2,sink_15] 0
interdiction[sink_29,innode_7] 0
interdiction[innode_4,sink_19] 0
interdiction[sink_19,innode_3] 0
interdiction[innode_4,innode_5] 0
interdiction[sink_27,innode_5] 0
interdiction[sink_27,sink_19] 1
interdiction[sink_10,sink_11] 0
interdiction[sink_10,innode_2] 0
interdiction[sink_10,innode_3] 0
interdiction[innode_6,sink_25] 0
interdiction[sink_11,innode_1] 0
interdiction[sink_19,innode_2] 0
interdiction[source_3,innode_4] 0
interdiction[source_2,innode_7] 0
interdiction[sink_3,innode_8] 0
WCcheckFlow[source_1,sink_3] 39
WCcheckFlow[innode_1,sink_16] 1
WCcheckFlow[innode_6,sink_13] 13
WCcheckFlow[sink_13,sink_14] 12
WCcheckFlow[sink_14,sink_10] 11
WCcheckFlow[sink_25,sink_26] 15
WCcheckFlow[sink_26,sink_9] 12
WCcheckFlow[sink_9,sink_18] 11
WCcheckFlow[sink_26,sink_4] 2
WCcheckFlow[sink_4,sink_20] 1
WCcheckFlow[sink_18,sink_6] 10
WCcheckFlow[sink_25,innode_8] -36
WCcheckFlow[sink_6,sink_7] 7
WCcheckFlow[sink_6,sink_22] 2
WCcheckFlow[sink_7,sink_24] 3
WCcheckFlow[sink_22,sink_1] 1
WCcheckFlow[sink_24,sink_21] 2
WCcheckFlow[sink_21,sink_12] 1
WCcheckFlow[sink_7,sink_5] 3
WCcheckFlow[sink_5,sink_17] 2
WCcheckFlow[sink_17,sink_4] 0
WCcheckFlow[sink_17,sink_8] 1
WCcheckFlow[sink_3,sink_23] 1
WCcheckFlow[sink_8,sink_20] 0
WCcheckFlow[sink_25,sink_20] 0
WCcheckFlow[sink_25,sink_15] 6
WCcheckFlow[sink_15,sink_29] 5
WCcheckFlow[sink_29,sink_28] 1
WCcheckFlow[sink_29,sink_2] 1
WCcheckFlow[sink_2,sink_15] 0
WCcheckFlow[sink_29,innode_7] 2
WCcheckFlow[innode_4,sink_19] -4
WCcheckFlow[sink_19,innode_3] -5
WCcheckFlow[innode_4,innode_5] 2
WCcheckFlow[sink_27,innode_5] -1
WCcheckFlow[sink_27,sink_19] 0
WCcheckFlow[sink_10,sink_11] 3
WCcheckFlow[sink_10,innode_2] 1
WCcheckFlow[sink_10,innode_3] 6
WCcheckFlow[innode_6,sink_25] -14
WCcheckFlow[sink_11,innode_1] 2
WCcheckFlow[sink_19,innode_2] 0
WCcheckFlow[source_3,innode_4] -1
WCcheckFlow[source_2,innode_7] -1
WCcheckFlow[sink_3,innode_8] 37
